============================[ Problem Statistics ]=============================|                                                                             ||  Number of variables:          4242                                         ||  Number of clauses:           10084                                         ||  Parse time:                   0.49 s                                       ||                                                                             |============================[ Search Statistics ]==============================| Conflicts |          ORIGINAL         |          LEARNT          | Progress ||           |    Vars  Clauses Literals |    Limit  Clauses Lit/Cl |          |===============================================================================|       100 |    1591     6289   753200 |     2305      100     53 | 62.501 % ||       250 |    1591     6289   753200 |     2536      250     75 | 62.495 % |===============================================================================restarts              : 3conflicts             : 266            (361 /sec)decisions             : 533            (0.00 % random) (723 /sec)propagations          : 11787          (15993 /sec)conflict literals     : 20406          (94.84 % deleted)CPU time              : 0.737 sSATISFIABLE